(define-fun <relation-not-in-first-second-H7_1_1_0-H7_1_1_1-Send3>
    ((H710-old <GameState_H7_<$<!n!>$>>)
     (H711-old <GameState_H7_<$<!n!>$>>)
     (H710-return <OracleReturn_H7_<$<!n!>$>_KX_noprfkey_<$<!n!>$>_Send3>)
     (H711-return <OracleReturn_H7_<$<!n!>$>_KX_noprfkey_<$<!n!>$>_Send3>)
     (ctr Int) (msg (Tuple2 Bits_n Bits_n)))
  Bool
  (let ((state-H710 (<oracle-return-H7-<$<!n!>$>-KX_noprfkey-<$<!n!>$>-Send3-game-state> H710-return))
        (state-H711 (<oracle-return-H7-<$<!n!>$>-KX_noprfkey-<$<!n!>$>-Send3-game-state> H711-return)))
    (let ((game-H710     (<game-H7-<$<!n!>$>-pkgstate-KX>  state-H710))
          (game-H710-old (<game-H7-<$<!n!>$>-pkgstate-KX>  H710-old))
          (game-H711     (<game-H7-<$<!n!>$>-pkgstate-KX>  state-H711))
          (game-H711-old (<game-H7-<$<!n!>$>-pkgstate-KX>  H711-old)))
      (let ((State0 (<pkg-state-KX_noprfkey-<$<!n!>$>-State> game-H710))
            (Fresh0 (<pkg-state-KX_noprfkey-<$<!n!>$>-Fresh> game-H710))
            (First0 (<pkg-state-KX_noprfkey-<$<!n!>$>-First> game-H710))
            (Second0 (<pkg-state-KX_noprfkey-<$<!n!>$>-Second> game-H710))
            (State0-old (<pkg-state-KX_noprfkey-<$<!n!>$>-State> game-H710-old))
            (Fresh0-old (<pkg-state-KX_noprfkey-<$<!n!>$>-Fresh> game-H710-old))
            (First0-old (<pkg-state-KX_noprfkey-<$<!n!>$>-First> game-H710-old))
            (Second0-old (<pkg-state-KX_noprfkey-<$<!n!>$>-Second> game-H710-old)))
        (let ((state (select State0 ctr)))
          (=> (and (not (is-mk-none state))
                   (= (mk-some true) (select Fresh0 ctr)))
              (let  ((U    (el11-1  (maybe-get state)))
                     (u    (el11-2  (maybe-get state)))
                     (V    (el11-3  (maybe-get state)))
                     (kid  (el11-4  (maybe-get state)))
                     (acc  (el11-5  (maybe-get state)))
                     (k    (el11-6  (maybe-get state)))
                     (ni   (el11-7  (maybe-get state)))
                     (nr   (el11-8  (maybe-get state)))
                     (kmac (el11-9  (maybe-get state)))
                     (sid  (el11-10 (maybe-get state)))
                     (mess (el11-11 (maybe-get state))))
                (=> (not (is-mk-none sid))
                    (and (not (= (mk-some ctr)
                                 (select First0-old (maybe-get sid))))
                         (not (= (mk-some ctr)
                                 (select Second0-old (maybe-get sid)))))))))))))



(define-fun <relation-other-session-H7_1_1_0-H7_1_1_1-Send3>
    ((H710-old <GameState_H7_<$<!n!>$>>)
     (H711-old <GameState_H7_<$<!n!>$>>)
     (H710-return <OracleReturn_H7_<$<!n!>$>_KX_noprfkey_<$<!n!>$>_Send3>)
     (H711-return <OracleReturn_H7_<$<!n!>$>_KX_noprfkey_<$<!n!>$>_Send3>)
     (ctr Int) (msg (Tuple2 Bits_n Bits_n)))
  Bool
  (let ((state-H710 (<oracle-return-H7-<$<!n!>$>-KX_noprfkey-<$<!n!>$>-Send3-game-state> H710-return))
        (state-H711 (<oracle-return-H7-<$<!n!>$>-KX_noprfkey-<$<!n!>$>-Send3-game-state> H711-return)))
    (let ((game-H710     (<game-H7-<$<!n!>$>-pkgstate-KX>  state-H710))
          (game-H710-old (<game-H7-<$<!n!>$>-pkgstate-KX>  H710-old))
          (game-H711     (<game-H7-<$<!n!>$>-pkgstate-KX>  state-H711))
          (game-H711-old (<game-H7-<$<!n!>$>-pkgstate-KX>  H711-old)))
      (let ((State0 (<pkg-state-KX_noprfkey-<$<!n!>$>-State> game-H710))
            (Fresh0 (<pkg-state-KX_noprfkey-<$<!n!>$>-Fresh> game-H710))
            (First0 (<pkg-state-KX_noprfkey-<$<!n!>$>-First> game-H710))
            (Second0 (<pkg-state-KX_noprfkey-<$<!n!>$>-Second> game-H710))
            (State0-old (<pkg-state-KX_noprfkey-<$<!n!>$>-State> game-H710-old))
            (Fresh0-old (<pkg-state-KX_noprfkey-<$<!n!>$>-Fresh> game-H710-old))
            (First0-old (<pkg-state-KX_noprfkey-<$<!n!>$>-First> game-H710-old))
            (Second0-old (<pkg-state-KX_noprfkey-<$<!n!>$>-Second> game-H710-old)))
        (let ((state (select State0 ctr)))
          (=> (and (not (is-mk-none state))
                   (= (mk-some true) (select Fresh0 ctr)))
              (let  ((U    (el11-1  (maybe-get state)))
                     (u    (el11-2  (maybe-get state)))
                     (V    (el11-3  (maybe-get state)))
                     (kid  (el11-4  (maybe-get state)))
                     (acc  (el11-5  (maybe-get state)))
                     (k    (el11-6  (maybe-get state)))
                     (ni   (el11-7  (maybe-get state)))
                     (nr   (el11-8  (maybe-get state)))
                     (kmac (el11-9  (maybe-get state)))
                     (sid  (el11-10 (maybe-get state)))
                     (mess (el11-11 (maybe-get state))))
                (=> (not (is-mk-none sid))
                    (let ((first (select First0 (maybe-get sid))))
                      (=> (not (is-mk-none first))
                          (let ((first (select State0 (maybe-get first))))
                            (and (not (is-mk-none first))
                                 (not (= u (el11-2 (maybe-get first))))))))))))))))


(define-fun <relation-empty-second-H7_1_1_0-H7_1_1_1-Send3>
    ((H710-old <GameState_H7_<$<!n!>$>>)
     (H711-old <GameState_H7_<$<!n!>$>>)
     (H710-return <OracleReturn_H7_<$<!n!>$>_KX_noprfkey_<$<!n!>$>_Send3>)
     (H711-return <OracleReturn_H7_<$<!n!>$>_KX_noprfkey_<$<!n!>$>_Send3>)
     (ctr Int) (msg (Tuple2 Bits_n Bits_n)))
  Bool
  (let ((state-H710 (<oracle-return-H7-<$<!n!>$>-KX_noprfkey-<$<!n!>$>-Send3-game-state> H710-return))
        (state-H711 (<oracle-return-H7-<$<!n!>$>-KX_noprfkey-<$<!n!>$>-Send3-game-state> H711-return)))
    (let ((game-H710     (<game-H7-<$<!n!>$>-pkgstate-KX>  state-H710))
          (game-H710-old (<game-H7-<$<!n!>$>-pkgstate-KX>  H710-old))
          (game-H711     (<game-H7-<$<!n!>$>-pkgstate-KX>  state-H711))
          (game-H711-old (<game-H7-<$<!n!>$>-pkgstate-KX>  H711-old)))
      (let ((State0 (<pkg-state-KX_noprfkey-<$<!n!>$>-State> game-H710))
            (Fresh0 (<pkg-state-KX_noprfkey-<$<!n!>$>-Fresh> game-H710))
            (First0 (<pkg-state-KX_noprfkey-<$<!n!>$>-First> game-H710))
            (Second0 (<pkg-state-KX_noprfkey-<$<!n!>$>-Second> game-H710))
            (State0-old (<pkg-state-KX_noprfkey-<$<!n!>$>-State> game-H710-old))
            (Fresh0-old (<pkg-state-KX_noprfkey-<$<!n!>$>-Fresh> game-H710-old))
            (First0-old (<pkg-state-KX_noprfkey-<$<!n!>$>-First> game-H710-old))
            (Second0-old (<pkg-state-KX_noprfkey-<$<!n!>$>-Second> game-H710-old)))
        (let ((state (select State0 ctr)))
          (=> (and (not (is-mk-none state))
                   (= (mk-some true) (select Fresh0 ctr)))
              (let  ((U    (el11-1  (maybe-get state)))
                     (u    (el11-2  (maybe-get state)))
                     (V    (el11-3  (maybe-get state)))
                     (kid  (el11-4  (maybe-get state)))
                     (acc  (el11-5  (maybe-get state)))
                     (k    (el11-6  (maybe-get state)))
                     (ni   (el11-7  (maybe-get state)))
                     (nr   (el11-8  (maybe-get state)))
                     (kmac (el11-9  (maybe-get state)))
                     (sid  (el11-10 (maybe-get state)))
                     (mess (el11-11 (maybe-get state))))
                (=> (not (is-mk-none sid))
                    (is-mk-none (select Second0-old (maybe-get sid)))))))))))

(define-fun <relation-empty-first-H7_1_1_0-H7_1_1_1-Send3>
    ((H710-old <GameState_H7_<$<!n!>$>>)
     (H711-old <GameState_H7_<$<!n!>$>>)
     (H710-return <OracleReturn_H7_<$<!n!>$>_KX_noprfkey_<$<!n!>$>_Send3>)
     (H711-return <OracleReturn_H7_<$<!n!>$>_KX_noprfkey_<$<!n!>$>_Send3>)
     (ctr Int) (msg (Tuple2 Bits_n Bits_n)))
  Bool
  (let ((state-H710 (<oracle-return-H7-<$<!n!>$>-KX_noprfkey-<$<!n!>$>-Send3-game-state> H710-return))
        (state-H711 (<oracle-return-H7-<$<!n!>$>-KX_noprfkey-<$<!n!>$>-Send3-game-state> H711-return)))
    (let ((game-H710     (<game-H7-<$<!n!>$>-pkgstate-KX>  state-H710))
          (game-H710-old (<game-H7-<$<!n!>$>-pkgstate-KX>  H710-old))
          (game-H711     (<game-H7-<$<!n!>$>-pkgstate-KX>  state-H711))
          (game-H711-old (<game-H7-<$<!n!>$>-pkgstate-KX>  H711-old)))
      (let ((State0 (<pkg-state-KX_noprfkey-<$<!n!>$>-State> game-H710))
            (Fresh0 (<pkg-state-KX_noprfkey-<$<!n!>$>-Fresh> game-H710))
            (First0 (<pkg-state-KX_noprfkey-<$<!n!>$>-First> game-H710))
            (Second0 (<pkg-state-KX_noprfkey-<$<!n!>$>-Second> game-H710))
            (State0-old (<pkg-state-KX_noprfkey-<$<!n!>$>-State> game-H710-old))
            (Fresh0-old (<pkg-state-KX_noprfkey-<$<!n!>$>-Fresh> game-H710-old))
            (First0-old (<pkg-state-KX_noprfkey-<$<!n!>$>-First> game-H710-old))
            (Second0-old (<pkg-state-KX_noprfkey-<$<!n!>$>-Second> game-H710-old)))
        (let ((state (select State0 ctr)))
          (=> (and (not (is-mk-none state))
                   (= (mk-some true) (select Fresh0 ctr)))
              (let  ((U    (el11-1  (maybe-get state)))
                     (u    (el11-2  (maybe-get state)))
                     (V    (el11-3  (maybe-get state)))
                     (kid  (el11-4  (maybe-get state)))
                     (acc  (el11-5  (maybe-get state)))
                     (k    (el11-6  (maybe-get state)))
                     (ni   (el11-7  (maybe-get state)))
                     (nr   (el11-8  (maybe-get state)))
                     (kmac (el11-9  (maybe-get state)))
                     (sid  (el11-10 (maybe-get state)))
                     (mess (el11-11 (maybe-get state))))
                (=> (not (is-mk-none sid))
                    (is-mk-none (select First0-old (maybe-get sid)))))))))))
